unsat
(:binary-propagations  9
 :conflicts            1
 :final-checks         1
 :max-generation       1
 :max-memory           22.67
 :memory               20.71
 :mk-bool-var          133
 :mk-clause            40
 :mk-clause-binary     105
 :num-allocs           3429950
 :num-checks           1
 :propagations         9
 :quant-instantiations 29
 :restarts             1
 :rlimit-count         23940
 :time                 0.01)
